c 36_4_checker.cnf
c
c field = 36
c formula set type = 4_checker
c
p cnf 5 50
62 
64 
66 
68 
-60 
63 
65 
67 
69 
-61 
62 
64 
66 
68 
-72 
63 
65 
67 
69 
-73 
64 
66 
68 
72 
-62 
65 
67 
69 
73 
-63 
64 
66 
68 
72 
-74 
65 
67 
69 
73 
-75 
66 
68 
72 
74 
-64 
67 
69 
73 
75 
-65 
66 
68 
72 
74 
-76 
67 
69 
73 
75 
-77 
68 
72 
74 
76 
-66 
69 
73 
75 
77 
-67 
68 
72 
74 
76 
-78 
69 
73 
75 
77 
-79 
72 
74 
76 
78 
-68 
73 
75 
77 
79 
-69 
72 
74 
76 
78 
-80 
73 
75 
77 
79 
-81 
10 
40 
100 
130 
-160 
11 
41 
101 
131 
-161 
40 
100 
130 
160 
-10 
41 
101 
131 
161 
-11 
40 
100 
130 
160 
-190 
41 
101 
131 
161 
-191 
100 
130 
160 
190 
-40 
101 
131 
161 
191 
-41 
100 
130 
160 
190 
-220 
101 
131 
161 
191 
-221 
6 
38 
102 
134 
-166 
7 
39 
103 
135 
-167 
38 
102 
134 
166 
-6 
39 
103 
135 
167 
-7 
38 
102 
134 
166 
-198 
39 
103 
135 
167 
-199 
102 
134 
166 
198 
-38 
103 
135 
167 
199 
-39 
102 
134 
166 
198 
-230 
103 
135 
167 
199 
-231 
14 
42 
98 
126 
-154 
15 
43 
99 
127 
-155 
42 
98 
126 
154 
-14 
43 
99 
127 
155 
-15 
42 
98 
126 
154 
-182 
43 
99 
127 
155 
-183 
98 
126 
154 
182 
-42 
99 
127 
155 
183 
-43 
98 
126 
154 
182 
-210 
99 
127 
155 
183 
-211 
